(declare-sort sk 0)
(declare-sort fun1 0)
(declare-sort fun12 0)
(declare-sort fun13 0)
(declare-sort fun14 0)
(declare-sort fun15 0)
(declare-sort fun16 0)
(declare-sort sk2 0)
(declare-datatype list3 ((nil3) (cons3 (head3 sk) (tail3 list3))))
(declare-datatype Nat ((zero) (succ (p Nat))))
(declare-datatype list ((nil) (cons (head Nat) (tail list))))
(declare-datatype
  Heap
  ((Node (proj1-Node Heap) (proj2-Node Nat) (proj3-Node Heap))
   (Nil)))
(declare-datatype
  list2 ((nil2) (cons2 (head2 Heap) (tail2 list2))))
(declare-fun toHeap (list) list2)
(declare-fun leq (Nat Nat) Bool)
(declare-fun hmerge (Heap Heap) Heap)
(declare-fun hpairwise (list2) list2)
(declare-fun hmerging (list2) Heap)
(declare-fun toHeap2 (list) Heap)
(declare-fun toList (Heap) list)
(declare-fun hsort (list) list)
(declare-fun elem (sk list3) Bool)
(declare-fun deleteBy (fun12 sk list3) list3)
(declare-fun isPermutation (list3 list3) Bool)
(declare-fun lam (sk) fun14)
(declare-const lam2 fun12)
(declare-fun apply1 (fun1 sk) sk)
(declare-fun apply12 (fun12 sk) fun14)
(declare-fun apply13 (fun13 sk) sk2)
(declare-fun apply14 (fun14 sk) Bool)
(declare-fun apply15 (fun15 sk2) sk)
(declare-fun apply16 (fun16 sk2) sk2)
(assert (isPermutation nil3 nil3))
(assert (= (toHeap nil) nil2))
(assert (= (hpairwise nil2) nil2))
(assert (= (hmerging nil2) Nil))
(assert (= (toList Nil) nil))
(assert
  (forall ((y Nat) (z list))
    (= (toHeap (cons y z)) (cons2 (Node Nil y Nil) (toHeap z)))))
(assert (forall ((y Nat)) (leq zero y)))
(assert (forall ((z Nat)) (not (leq (succ z) zero))))
(assert
  (forall ((z Nat) (x2 Nat))
    (= (leq (succ z) (succ x2)) (leq z x2))))
(assert (forall ((y Heap)) (= (hmerge Nil y) y)))
(assert
  (forall ((z Heap) (x2 Nat) (x3 Heap))
    (= (hmerge (Node z x2 x3) Nil) (Node z x2 x3))))
(assert
  (forall ((z Heap) (x2 Nat) (x3 Heap) (x4 Heap) (x5 Nat) (x6 Heap))
    (=> (leq x2 x5)
      (= (hmerge (Node z x2 x3) (Node x4 x5 x6))
        (Node (hmerge x3 (Node x4 x5 x6)) x2 z)))))
(assert
  (forall ((z Heap) (x2 Nat) (x3 Heap) (x4 Heap) (x5 Nat) (x6 Heap))
    (=> (not (leq x2 x5))
      (= (hmerge (Node z x2 x3) (Node x4 x5 x6))
        (Node (hmerge (Node z x2 x3) x6) x5 x4)))))
(assert
  (forall ((q Heap)) (= (hpairwise (cons2 q nil2)) (cons2 q nil2))))
(assert
  (forall ((q Heap) (r Heap) (qs list2))
    (= (hpairwise (cons2 q (cons2 r qs)))
      (cons2 (hmerge q r) (hpairwise qs)))))
(assert (forall ((q Heap)) (= (hmerging (cons2 q nil2)) q)))
(assert
  (forall ((q Heap) (z Heap) (x2 list2))
    (= (hmerging (cons2 q (cons2 z x2)))
      (hmerging (hpairwise (cons2 q (cons2 z x2)))))))
(assert (forall ((x list)) (= (toHeap2 x) (hmerging (toHeap x)))))
(assert
  (forall ((q Heap) (y Nat) (r Heap))
    (= (toList (Node q y r)) (cons y (toList (hmerge q r))))))
(assert (forall ((x list)) (= (hsort x) (toList (toHeap2 x)))))
(assert (forall ((x sk)) (not (elem x nil3))))
(assert
  (forall ((x sk) (z sk) (xs list3))
    (= (elem x (cons3 z xs)) (or (= z x) (elem x xs)))))
(assert (forall ((x fun12) (y sk)) (= (deleteBy x y nil3) nil3)))
(assert
  (forall ((x fun12) (y sk) (y2 sk) (ys list3))
    (=> (apply14 (apply12 x y) y2)
      (= (deleteBy x y (cons3 y2 ys)) ys))))
(assert
  (forall ((x fun12) (y sk) (y2 sk) (ys list3))
    (=> (not (apply14 (apply12 x y) y2))
      (= (deleteBy x y (cons3 y2 ys)) (cons3 y2 (deleteBy x y ys))))))
(assert
  (forall ((y list3) (x3 sk) (xs list3))
    (= (isPermutation (cons3 x3 xs) y)
      (and (elem x3 y) (isPermutation xs (deleteBy lam2 x3 y))))))
(assert
  (forall ((z sk) (x2 list3))
    (not (isPermutation nil3 (cons3 z x2)))))
(assert (forall ((x4 sk)) (= (apply12 lam2 x4) (lam x4))))
(assert
  (forall ((x4 sk) (x5 sk)) (= (apply14 (lam x4) x5) (= x4 x5))))
